language ESSENCE' 1.0
letting lastdx=99
letting cage be [
[10,14,6,0,0, 0,0, 0,0, 0,0],
[33,6,16,6,15,5,15,4,15,0,0],
[12,12,7,0,0, 0,0, 0,0, 0,0],
[6,15,9,0,0, 0,0, 0,0, 0,0],
[37,8,10,9,10,9,9,8,9,0,0],
[12,1,5,0,0, 0,0, 0,0, 0,0],
[35,11,16,10,16,10,15,11,15,0,0],
[27,8,4,9,4,9,5,0,0, 0,0],
[13,15,13,16,13,0,0, 0,0, 0,0],
[24,4,11,4,10,0,0, 0,0, 0,0],
[52,2,7,2,8,1,8,1,9,1,10],
[42,7,14,7,13,8,13,9,13,10,13],
[9,6,1,7,1,0,0, 0,0, 0,0],
[7,13,6,0,0, 0,0, 0,0, 0,0],
[1,6,5,0,0, 0,0, 0,0, 0,0],
[6,7,8,6,8,0,0, 0,0, 0,0],
[36,15,16,14,16,13,16,13,15,0,0],
[32,10,12,9,12,8,12,7,12,6,12],
[12,13,9,13,10,0,0, 0,0, 0,0],
[3,13,3,0,0, 0,0, 0,0, 0,0],
[8,1,4,2,4,0,0, 0,0, 0,0],
[31,7,16,8,16,9,16,0,0, 0,0],
[7,12,1,0,0, 0,0, 0,0, 0,0],
[26,3,6,3,7,3,8,0,0, 0,0],
[8,3,13,4,13,0,0, 0,0, 0,0],
[38,8,15,7,15,8,14,9,14,9,15],
[1,14,14,0,0, 0,0, 0,0, 0,0],
[34,8,1,9,1,10,1,11,1,11,2],
[6,11,12,0,0, 0,0, 0,0, 0,0],
[22,6,6,7,6,8,6,0,0, 0,0],
[3,14,11,0,0, 0,0, 0,0, 0,0],
[3,5,14,0,0, 0,0, 0,0, 0,0],
[11,9,11,0,0, 0,0, 0,0, 0,0],
[29,14,1,13,1,13,2,14,2,0,0],
[45,5,10,5,9,6,9,6,10,6,11],
[8,1,12,1,11,0,0, 0,0, 0,0],
[11,16,5,0,0, 0,0, 0,0, 0,0],
[17,8,3,8,2,0,0, 0,0, 0,0],
[48,12,11,13,11,13,12,14,12,14,13],
[19,7,5,8,5,0,0, 0,0, 0,0],
[33,11,4,12,4,12,3,12,2,11,3],
[9,6,4,0,0, 0,0, 0,0, 0,0],
[16,16,10,0,0, 0,0, 0,0, 0,0],
[1,2,3,0,0, 0,0, 0,0, 0,0],
[36,5,13,5,12,5,11,4,12,0,0],
[41,5,5,5,6,4,6,4,7,5,7],
[45,2,5,3,5,4,5,4,4,3,4],
[51,2,15,3,15,3,14,4,14,0,0],
[25,5,3,5,4,0,0, 0,0, 0,0],
[18,16,4,16,3,0,0, 0,0, 0,0],
[12,13,14,0,0, 0,0, 0,0, 0,0],
[4,12,5,0,0, 0,0, 0,0, 0,0],
[24,11,9,11,8,0,0, 0,0, 0,0],
[18,12,15,12,16,0,0, 0,0, 0,0],
[53,3,2,3,3,4,3,4,2,4,1],
[30,16,7,16,8,16,9,15,8,0,0],
[16,2,1,3,1,0,0, 0,0, 0,0],
[1,10,6,0,0, 0,0, 0,0, 0,0],
[24,15,12,16,12,16,11,0,0, 0,0],
[44,10,7,10,8,9,8,8,8,8,7],
[35,10,3,10,2,9,2,9,3,0,0],
[35,12,14,11,14,10,14,11,13,0,0],
[3,12,10,0,0, 0,0, 0,0, 0,0],
[7,2,2,0,0, 0,0, 0,0, 0,0],
[10,13,4,0,0, 0,0, 0,0, 0,0],
[8,7,4,0,0, 0,0, 0,0, 0,0],
[42,2,12,2,11,2,10,2,9,3,9],
[28,3,11,3,10,3,12,0,0, 0,0],
[10,1,14,0,0, 0,0, 0,0, 0,0],
[12,3,16,4,16,5,16,0,0, 0,0],
[25,1,7,1,6,2,6,0,0, 0,0],
[30,11,6,11,7,12,6,11,5,0,0],
[9,1,1,0,0, 0,0, 0,0, 0,0],
[16,1,2,1,3,0,0, 0,0, 0,0],
[14,1,13,0,0, 0,0, 0,0, 0,0],
[20,1,15,1,16,2,16,0,0, 0,0],
[21,2,13,2,14,0,0, 0,0, 0,0],
[26,4,8,4,9,5,8,0,0, 0,0],
[46,5,1,5,2,6,2,7,2,0,0],
[19,6,3,7,3,0,0, 0,0, 0,0],
[26,6,7,7,7,0,0, 0,0, 0,0],
[18,6,13,6,14,0,0, 0,0, 0,0],
[1,7,9,0,0, 0,0, 0,0, 0,0],
[6,7,10,0,0, 0,0, 0,0, 0,0],
[27,7,11,8,11,0,0, 0,0, 0,0],
[21,9,6,9,7,0,0, 0,0, 0,0],
[29,10,4,10,5,0,0, 0,0, 0,0],
[44,10,9,10,10,10,11,11,11,11,10],
[16,12,8,12,9,0,0, 0,0, 0,0],
[16,12,12,0,0, 0,0, 0,0, 0,0],
[20,12,13,13,13,0,0, 0,0, 0,0],
[39,13,7,14,7,15,7,15,6,16,6],
[38,13,8,14,8,14,9,14,10,0,0],
[16,14,3,14,4,0,0, 0,0, 0,0],
[43,14,15,15,15,16,15,16,16,0,0],
[16,15,1,0,0, 0,0, 0,0, 0,0],
[23,15,2,15,3,0,0, 0,0, 0,0],
[18,15,10,15,11,0,0, 0,0, 0,0],
[15,15,14,16,14,0,0, 0,0, 0,0],
[16,16,1,16,2,0,0, 0,0, 0,0]
]
